db/data/1922420588482130323469827887288494888.z3.out
-------------------
2500.267521765
